000 000 000 000 000 000 000 005 013 023 006 001 000 000 002 002 004 011 031 066 072 057 069 060 025 000 000 000 001 -99 -99
000 000 000 000 000 000 000 002 006 033 007 005 002 000 002 002 004 010 029 061 044 042 039 037 025 002 000 001 001 -99 -99
-99 000 000 000 000 001 000 000 003 017 025 007 002 000 001 003 007 006 013 023 022 044 044 037 013 002 000 000 001 -99 -99
-99 000 000 000 000 000 001 000 003 008 008 006 004 001 001 002 002 003 010 017 031 039 047 045 009 000 000 000 001 -99 -99
000 000 000 000 000 000 001 001 001 009 007 006 006 001 002 002 003 005 011 008 018 030 046 032 014 001 000 000 000 -99 -99
000 000 000 000 000 000 000 001 002 003 001 004 004 001 002 002 003 013 013 007 013 048 043 020 014 001 -99 -99 -99 -99 -99
000 000 000 000 000 000 000 000 004 003 002 003 002 001 002 002 005 012 020 009 010 009 016 011 011 002 -99 -99 -99 -99 -99
000 000 000 000 000 000 000 001 002 004 002 002 002 001 001 002 005 007 015 006 005 007 014 009 004 001 -99 -99 -99 -99 -99
000 000 000 000 000 000 000 000 001 002 002 003 002 002 001 003 004 012 007 004 005 004 005 005 003 001 -99 -99 -99 -99 -99
000 000 000 000 000 000 000 000 001 001 002 001 003 004 002 003 002 002 002 001 004 006 013 006 004 002 000 000 -99 000 -99
000 000 000 000 000 000 000 000 000 001 001 001 002 001 003 002 002 001 000 001 003 006 008 003 003 001 000 000 -99 000 000
000 000 000 000 000 000 000 000 000 000 000 001 001 001 002 002 001 002 002 003 002 006 007 004 002 000 -99 -99 -99 000 000
000 000 000 000 000 000 000 000 000 000 000 001 002 001 002 002 002 003 006 007 006 006 006 003 002 000 -99 -99 000 000 000
000 000 000 000 000 000 000 000 000 000 000 001 002 003 003 002 002 004 008 006 006 005 002 001 001 000 000 -99 -99 -99 -99
000 000 000 000 000 000 000 000 000 000 000 001 001 001 002 003 002 003 005 003 003 001 002 000 000 000 000 -99 -99 -99 -99
000 000 000 000 000 000 000 000 000 000 001 001 001 002 003 002 002 002 003 002 002 000 -99 000 000 000 000 -99 -99 -99 -99
000 000 000 001 001 000 000 001 001 001 001 001 000 001 003 002 002 001 001 001 000 000 000 000 000 -99 -99 000 -99 -99 -99
000 000 000 000 000 000 000 001 002 001 001 000 000 000 001 001 001 001 000 000 000 000 000 -99 000 -99 -99 -99 -99 -99 -99
000 000 000 000 000 001 001 001 002 001 000 000 000 000 000 000 001 001 000 000 000 000 000 -99 000 -99 -99 -99 -99 -99 -99
000 000 000 000 000 001 001 001 000 000 000 000 000 000 000 000 001 000 000 000 000 -99 000 -99 -99 -99 -99 -99 -99 -99 -99
000 000 000 000 000 000 001 001 000 000 000 000 000 000 000 000 000 000 000 000 000 000 000 -99 -99 -99 -99 -99 -99 -99 -99
000 000 000 000 000 000 000 000 000 000 000 000 000 000 000 000 000 000 000 000 000 000 000 -99 -99 -99 -99 -99 -99 -99 -99
000 000 000 000 000 000 000 000 000 000 000 001 000 000 000 000 000 000 000 000 000 000 000 -99 -99 -99 -99 -99 -99 -99 -99
000 000 000 000 000 000 000 000 000 000 002 003 000 000 000 000 000 000 000 000 000 000 000 -99 -99 -99 -99 -99 -99 -99 -99
000 000 000 000 000 000 000 000 000 000 004 002 000 000 000 000 000 000 000 000 000 000 000 -99 -99 -99 -99 -99 -99 -99 -99
000 000 000 000 000 000 000 000 000 000 002 000 000 000 000 000 000 000 000 000 000 000 000 -99 -99 -99 -99 -99 -99 -99 -99
000 000 000 000 000 000 000 000 000 000 001 000 000 000 000 000 000 000 000 000 000 000 -99 -99 -99 -99 -99 -99 -99 -99 -99
000 000 000 000 000 000 000 000 000 000 000 000 001 001 000 000 000 000 000 000 -99 000 -99 -99 -99 -99 -99 -99 -99 -99 000
000 000 000 000 000 000 000 000 000 000 000 000 002 007 000 000 000 000 000 000 -99 -99 -99 -99 -99 -99 -99 -99 -99 -99 000
001 000 000 000 000 000 000 000 000 000 000 000 001 002 000 000 000 000 000 000 -99 -99 -99 -99 -99 -99 -99 -99 -99 -99 -99
001 000 000 000 000 000 000 000 000 000 000 000 000 001 000 000 000 000 000 000 -99 -99 -99 -99 -99 -99 -99 -99 -99 -99 000
002 001 001 000 001 001 000 000 000 000 000 000 000 000 000 001 000 000 000 -99 -99 -99 -99 -99 000 000 -99 -99 -99 -99 000
001 001 001 001 001 002 001 001 001 001 000 000 000 000 000 001 000 000 000 -99 -99 -99 000 000 000 000 -99 -99 -99 -99 000
000 000 001 001 001 003 002 001 001 001 000 000 000 000 000 000 000 000 000 000 -99 000 000 000 000 000 000 -99 -99 000 000
000 001 001 001 001 004 002 003 002 001 000 000 000 001 000 000 -99 -99 000 000 -99 000 000 000 000 000 000 000 -99 000 000
000 000 000 001 001 002 002 001 001 001 000 000 000 000 000 000 -99 -99 000 000 000 000 000 000 000 000 000 000 000 000 000
000 000 000 000 000 001 001 001 000 001 000 000 000 000 000 000 -99 000 000 000 000 000 000 000 000 000 000 000 000 000 000
000 000 000 000 000 000 000 000 000 000 000 000 000 000 000 000 000 000 000 000 000 000 000 000 000 000 000 000 000 000 000
000 000 000 000 000 000 000 000 000 000 000 000 000 000 000 000 000 000 000 000 000 000 000 000 001 000 000 000 000 000 000
000 000 000 000 000 000 000 000 000 -99 -99 -99 000 000 000 000 000 000 000 000 000 -99 000 001 001 000 000 000 000 000 000
000 000 000 000 000 000 000 000 000 -99 000 000 000 000 000 000 000 000 000 000 000 000 000 002 004 004 000 000 -99 000 000
000 000 000 000 000 000 000 000 -99 000 000 000 -99 000 000 000 000 000 000 000 000 -99 000 002 006 017 002 000 000 000 000
000 000 000 000 000 000 000 000 000 000 000 -99 000 000 000 000 000 000 000 000 -99 000 000 001 004 012 001 000 -99 -99 000
000 000 000 000 000 000 000 000 000 000 000 000 000 000 000 000 000 000 000 -99 000 000 000 000 004 010 000 000 -99 -99 000
001 000 000 001 000 000 000 000 000 000 000 000 000 000 000 000 000 000 000 -99 -99 000 000 000 002 002 000 000 -99 -99 -99
002 000 001 001 000 000 000 000 000 000 000 000 000 000 000 000 000 000 -99 -99 000 000 000 000 000 000 000 000 -99 -99 -99
001 000 001 001 000 000 000 000 000 000 000 001 001 001 000 000 000 000 -99 000 000 000 000 000 000 000 000 002 001 001 -99
000 000 002 002 000 000 000 000 000 000 000 001 004 003 000 000 000 000 000 -99 -99 000 -99 000 000 000 002 004 003 000 -99
001 002 003 000 001 000 000 000 000 000 000 001 008 009 000 002 003 000 000 -99 -99 000 000 000 000 000 004 003 002 000 -99
001 004 002 001 000 000 001 000 000 000 000 001 018 002 001 003 003 000 000 -99 000 000 000 000 002 003 004 005 001 001 000
001 002 000 000 000 000 000 000 000 000 000 003 003 000 000 004 000 000 000 000 000 000 000 006 009 005 012 015 002 001 000
000 001 001 000 000 000 000 000 000 -99 000 000 000 000 002 006 001 000 000 000 000 000 004 031 050 017 051 040 004 000 000
002 001 001 000 000 000 000 000 000 000 000 000 000 001 015 010 002 000 000 000 002 004 039 050 052 088 098 051 003 -99 -99
010 004 004 001 001 001 000 000 000 000 000 000 001 002 009 007 005 001 000 003 006 016 025 051 050 057 105 064 001 -99 -99
017 007 012 005 003 005 009 002 001 000 000 000 001 003 009 017 020 004 000 006 017 024 034 028 048 068 098 006 000 -99 -99
